4 
5  40 56 
6  11 26 42 52 57 
7  02 07 12 17 22 27 32 37 42 47 52 57 
8  02 07 12 17 22 27 32 37 42 47 52 57 
9  02 07 12 17 22 27 32 37 42 47 52 57 
10  02 07 13 19 27 34 42 49 57 
11  04 12 19 27 34 42 49 57 
12  04 12 19 27 34 42 49 57 
13  04 12 19 29 36 44 51 58 
14  06 14 21 29 36 44 51 58 
15  06 14 21 29 34 39 43 49 54 59 
16  04 09 13 19 24 28 34 39 43 49 54 58 
17  04 09 13 19 24 28 34 39 43 49 54 58 
18  04 09 13 19 24 29 34 39 44 49 54 59 
19  04 09 14 19 23 29 35 42 49 57 
20  04 12 19 27 33 40 48 56 
21  03 14 29 36 44 59 
22  14 29 39 54 
23  09 24 38 
0 
